15 
300 
4.6 7.1 0 0
5 5.6 0 -139
5.7 11.4 -20 -139
4.4 12.3 -20 -136
2.8 14.3 30 -11
3.2 10.3 -15 -114
3.5 9.8 -15 -132
4.4 8.4 10 -12
7.8 11 -20 -68
8.8 9.8 20 -10
7.7 8.2 20 -10
6.3 7.9 -15 -113
5.4 8.2 -10 -97
5.8 6.8 -10 -70
6.7 5.8 25 -18
13.8 13.1 40 -20
14.1 14.2 -40 -70
11.2 13.6 -30 -68
9.7 16.4 -30 -98
9.5 18.8 -50 -110
4.7 16.8 30 -27
